
;this file is automatically generated: Mon Feb 10 17:01:40 CST 2020

;declarations generated

(declare-fun oclExcludes ( Int Int) Bool)
(declare-fun type_040bc0b1_14b6_433b_81f0_c8e2e458acb3_Class40 ( Int) Bool)
(declare-fun Cardinality ( Int) Int)
(declare-fun class40_Class40BoolAttr0 ( Int) Bool)
(declare-fun class40_Class40BoolAttr1 ( Int) Bool)
(declare-fun oclSelect ( Int Bool) Int)
(declare-fun Enum0 ( Int) Int)
(declare-fun Enum1 ( Int) Int)
(declare-fun Enum2 ( Int) Int)
(declare-fun container_ ( Int) Int)
(declare-fun oclIncludes ( Int Int) Bool)
(declare-fun ObjAt ( Int Int) Int)
(declare-fun obj_ef6d0552_0e7a_466c_83e0_ae734a152e2a ( Int) Int)

;formula(s) generated
(assert (! (forall ((c1 Int)) (=> ( type_040bc0b1_14b6_433b_81f0_c8e2e458acb3_Class40 c1 )  (not ( class40_Class40BoolAttr1 ( obj_ef6d0552_0e7a_466c_83e0_ae734a152e2a c1 )  )  ))):named l0))
(assert (! (or (forall ((v Int)) (=> ( type_040bc0b1_14b6_433b_81f0_c8e2e458acb3_Class40 v )  ( class40_Class40BoolAttr1 ( obj_ef6d0552_0e7a_466c_83e0_ae734a152e2a v )  ) )) (forall ((v Int)) (=> ( type_040bc0b1_14b6_433b_81f0_c8e2e458acb3_Class40 v )  (and ( class40_Class40BoolAttr0 ( obj_ef6d0552_0e7a_466c_83e0_ae734a152e2a v )  )  (and (forall ((v Int)) (=> ( type_040bc0b1_14b6_433b_81f0_c8e2e458acb3_Class40 v )  ( class40_Class40BoolAttr0 ( obj_ef6d0552_0e7a_466c_83e0_ae734a152e2a v )  ) )) (forall ((v Int)) (=> ( type_040bc0b1_14b6_433b_81f0_c8e2e458acb3_Class40 v )  ( class40_Class40BoolAttr1 ( obj_ef6d0552_0e7a_466c_83e0_ae734a152e2a v )  ) ))))))):named l1))
(assert (exists ((o Int)) ( type_040bc0b1_14b6_433b_81f0_c8e2e458acb3_Class40 ( obj_ef6d0552_0e7a_466c_83e0_ae734a152e2a o )  ) ))

 ;end of formula 